# Solution for model count
# Objective value = 10
z#1 0
z#2 1
z#3 0
z#4 1
z#5 0
z#6 0
z#7 0
z#8 1
z#9 1
z#10 0
z#11 1
z#12 0
z#13 0
z#14 1
z#15 1
z#16 1
z#17 0
z#18 0
z#19 0
z#20 1
z#21 0
z#22 1
z#23 0
z#24 0
x#24 0
x#23 0
x#22 3350
x#21 0
x#20 563
x#19 0
x#18 0
x#17 0
x#16 1165
x#15 861
x#14 42
x#13 0
x#12 0
x#11 141
x#10 0
x#9 511
x#8 233
x#7 0
x#6 0
x#5 0
x#4 743
x#3 0
x#2 2391
x#1 0
